1010001100010111001110111        443
1010001100010111001110111        443
1010001100010111001110111        443
1010001100010111001110111        443
1010001100010111001110111        443
1010001100010111001110111        443
1010001100010111001110111        443
1010001100010111001110111        443
1010001100010111001110111        443
1010001100010111001110111        443
1010001100010111001110111        443
0000101101011111000110011        469
0000101101011111000110011        469
0000101101011111000110011        469
0000101101011111000110011        469
0000101101011111000110011        469
0000101101011111000110011        469
0000101101011111000110011        469
0000101101011111000110011        469
0000101101011111000110011        469
0010001011011011001100111        470
0010001011011011001100111        470
0010001011011011001100111        470
0010001011011011001100111        470
0010001011011011001100111        470
0010001011011011001100111        470
0010001011011011001100111        470
0010001011011011001100111        470
0010001011011011001100111        470
0010001011011011001100111        470
0010001011011011001100111        470
0010001011011011001100111        470
0010001011011011001100111        470
0010001011011011001100111        470
0010001011011011001100111        470
0010001011011011001100111        470
0010001011011011001100111        470
0010001011011011001100111        470
0010001011011011001100111        470
0010001011011011001100111        470
0010001011011011001100111        470
0010001011011011001100111        470
0010001011011011001100111        470
0010001011011011001100111        470
0010001011011011001100111        470
0010001011011011001100111        470
0010001011011011001100111        470
0010001011011011001100111        470
0010001011011011001100111        470
0010001011011011001100111        470
0010001011011011001100111        470
0010001011011011001100111        470
0010001011011011001100111        470
0010001011011011001100111        470
0010001011011011001100111        470
0010001011011011001100111        470
0010001011011011001100111        470
0010001011011011001100111        470
0010001011011011001100111        470
0010001011011011001100111        470
0010001011011011001100111        470
0010001011011011001100111        470
0010001011011011001100111        470
0010001011011011001100111        470
0010001011011011001100111        470
0010001011011011001100111        470
0010001011011011001100111        470
0010001011011011001100111        470
0010001011011011001100111        470
0010001011011011001100111        470
0010001011011011001100111        470
0010001011011011001100111        470
0010001011011011001100111        470
0010001011011011001100111        470
0010001011011011001100111        470
0010001011011011001100111        470
0010001011011011001100111        470
0010001011011011001100111        470
0010001011011011001100111        470
0010001011011011001100111        470
0010001011011011001100111        470
0010001011011011001100111        470
0010001011011011001100111        470
0010001011011011001100111        470
0010001011011011001100111        470
0010001011011011001100111        470
0010001011011011001100111        470
0010001011011011001100111        470
0010001011011011001100111        470
0010001011011011001100111        470
0010001011011011001100111        470
0010001011011011001100111        470
0010001011011011001100111        470
0010001011011011001100111        470
0010001011011011001100111        470
0010001011011011001100111        470
0010001011011011001100111        470
0010001011011011001100111        470
0010001011011011001100111        470
0010001011011011001100111        470
0010001011011011001100111        470
0010001011011011001100111        470
0010001011011011001100111        470
0010001011011011001100111        470
0010001011011011001100111        470
0010001011011011001100111        470
0010001011011011001100111        470
0010001011011011001100111        470
0010001011011011001100111        470
0010001011011011001100111        470
0010001011011011001100111        470
0010001011011011001100111        470
0010001011011011001100111        470
0010001011011011001100111        470
0010001011011011001100111        470
0010001011011011001100111        470
0010001011011011001100111        470
0010001011011011001100111        470
0010001011011011001100111        470
0010001011011011001100111        470
0010001011011011001100111        470
0010001011011011001100111        470
0010001011011011001100111        470
0010001011011011001100111        470
0010001011011011001100111        470
0010001011011011001100111        470
0010001011011011001100111        470
0010001011011011001100111        470
0010001011011011001100111        470
0010001011011011001100111        470
0010001011011011001100111        470
0010001011011011001100111        470
0010001011011011001100111        470
0010001011011011001100111        470
0010001011011011001100111        470
0010001011011011001100111        470
0010001011011011001100111        470
0010001011011011001100111        470
0010001011011011001100111        470
0010001011011011001100111        470
0010001011011011001100111        470
0010001011011011001100111        470
0010001011011011001100111        470
0010001011011011001100111        470
0010001011011011001100111        470
0010001011011011001100111        470
0010001011011011001100111        470
0010001011011011001100111        470
0010001011011011001100111        470
0010001011011011001100111        470
0010001011011011001100111        470
0010001011011011001100111        470
0010001011011011001100111        470
0010001011011011001100111        470
0010001011011011001100111        470
0010001011011011001100111        470
0010001011011011001100111        470
0010001011011011001100111        470
0010001011011011001100111        470
0010001011011011001100111        470
0010001011011011001100111        470
0010001011011011001100111        470
0010001011011011001100111        470
0010001011011011001100111        470
0010001011011011001100111        470
0010001011011011001100111        470
0010001011011011001100111        470
0010001011011011001100111        470
0010001011011011001100111        470
0010001011011011001100111        470
0010001011011011001100111        470
0010001011011011001100111        470
0010001011011011001100111        470
0010001011011011001100111        470
0010001011011011001100111        470
0010001011011011001100111        470
0010001011011011001100111        470
0010001011011011001100111        470
0010001011011011001100111        470
0010001011011011001100111        470
0010001011011011001100111        470
0010001011011011001100111        470
0010001011011011001100111        470
0010001011011011001100111        470
0010001011011011001100111        470
0010001011011011001100111        470
0010001011011011001100111        470
0010001011011011001100111        470
0010001011011011001100111        470
0010001011011011001100111        470
0010001011011011001100111        470
0010001011011011001100111        470
0010001011011011001100111        470
0010001011011011001100111        470
0010001011011011001100111        470
0010001011011011001100111        470
0010001011011011001100111        470
0010001011011011001100111        470
0010001011011011001100111        470
0010001011011011001100111        470
0010001011011011001100111        470
0010001011011011001100111        470
0010001011011011001100111        470
0010001011011011001100111        470
0010001011011011001100111        470
0010001011011011001100111        470
0010001011011011001100111        470
0010001011011011001100111        470
0010001011011011001100111        470
0010001011011011001100111        470
0010001011011011001100111        470
0010001011011011001100111        470
0010001011011011001100111        470
0010001011011011001100111        470
0010001011011011001100111        470
0010001011011011001100111        470
0010001011011011001100111        470
0010001011011011001100111        470
0010001011011011001100111        470
0010001011011011001100111        470
0010001011011011001100111        470
0010001011011011001100111        470
0010001011011011001100111        470
0010001011011011001100111        470
0010001011011011001100111        470
0010001011011011001100111        470
0010001011011011001100111        470
0010001011011011001100111        470
0010001011011011001100111        470
0010001011011011001100111        470
0010001011011011001100111        470
0010001011011011001100111        470
0010001011011011001100111        470
0010001011011011001100111        470
0010001011011011001100111        470
0010001011011011001100111        470
0010001011011011001100111        470
0010001011011011001100111        470
0010001011011011001100111        470
0010001011011011001100111        470
0010001011011011001100111        470
0010001011011011001100111        470
0010001011011011001100111        470
0010001011011011001100111        470
0010001011011011001100111        470
0010001011011011001100111        470
0010001011011011001100111        470
0010001011011011001100111        470
0010001011011011001100111        470
0010001011011011001100111        470
0010001011011011001100111        470
0010001011011011001100111        470
0010001011011011001100111        470
0010001011011011001100111        470
0010001011011011001100111        470
0010001011011011001100111        470
0010001011011011001100111        470
0010001011011011001100111        470
0010001011011011001100111        470
0010001011011011001100111        470
0010001011011011001100111        470
0010001011011011001100111        470
0010001011011011001100111        470
0010001011011011001100111        470
0010001011011011001100111        470
0010001011011011001100111        470
0010001011011011001100111        470
0010001011011011001100111        470
0010001011011011001100111        470
0010001011011011001100111        470
0010001011011011001100111        470
0010001011011011001100111        470
0010001011011011001100111        470
0010001011011011001100111        470
0010001011011011001100111        470
0010001011011011001100111        470
0010001011011011001100111        470
0010001011011011001100111        470
0010001011011011001100111        470
0010001011011011001100111        470
0010001011011011001100111        470
0010001011011011001100111        470
0010001011011011001100111        470
0010001011011011001100111        470
0010001011011011001100111        470
0010001011011011001100111        470
0010001011011011001100111        470
0010001011011011001100111        470
0010001011011011001100111        470
0010001011011011001100111        470
0010001011011011001100111        470
0010001011011011001100111        470
0010001011011011001100111        470
0010001011011011001100111        470
0010001011011011001100111        470
0010001011011011001100111        470
0010001011011011001100111        470
0010001011011011001100111        470
0010001011011011001100111        470
0010001011011011001100111        470
0010001011011011001100111        470
0010001011011011001100111        470
0010001011011011001100111        470
0010001011011011001100111        470
0010001011011011001100111        470
0010001011011011001100111        470
0010001011011011001100111        470
0010001011011011001100111        470
0010001011011011001100111        470
0010001011011011001100111        470
0010001011011011001100111        470
0010001011011011001100111        470
0010001011011011001100111        470
0010001011011011001100111        470
0010001011011011001100111        470
0010001011011011001100111        470
0010001011011011001100111        470
0010001011011011001100111        470
0010001011011011001100111        470
0010001011011011001100111        470
0010001011011011001100111        470
0010001011011011001100111        470
0010001011011011001100111        470
0010001011011011001100111        470
0010001011011011001100111        470
0010001011011011001100111        470
0010001011011011001100111        470
0010001011011011001100111        470
0010001011011011001100111        470
0010001011011011001100111        470
0010001011011011001100111        470
0010001011011011001100111        470
0010001011011011001100111        470
0010001011011011001100111        470
0010001011011011001100111        470
0010001011011011001100111        470
0010001011011011001100111        470
0010001011011011001100111        470
0010001011011011001100111        470
0010001011011011001100111        470
0010001011011011001100111        470
0010001011011011001100111        470
0010001011011011001100111        470
0010001011011011001100111        470
0010001011011011001100111        470
0010001011011011001100111        470
0010001011011011001100111        470
0010001011011011001100111        470
0010001011011011001100111        470
0010001011011011001100111        470
0010001011011011001100111        470
0010001011011011001100111        470
0010001011011011001100111        470
0010001011011011001100111        470
0010001011011011001100111        470
0010001011011011001100111        470
0010001011011011001100111        470
0010001011011011001100111        470
0010001011011011001100111        470
0010001011011011001100111        470
0010001011011011001100111        470
0010001011011011001100111        470
0010001011011011001100111        470
0010001011011011001100111        470
0010001011011011001100111        470
0010001011011011001100111        470
0010001011011011001100111        470
0010001011011011001100111        470
0010001011011011001100111        470
0010001011011011001100111        470
0010001011011011001100111        470
0010001011011011001100111        470
0010001011011011001100111        470
0010001011011011001100111        470
0010001011011011001100111        470
0010001011011011001100111        470
0010001011011011001100111        470
0010001011011011001100111        470
0010001011011011001100111        470
0010001011011011001100111        470
0010001011011011001100111        470
0010001011011011001100111        470
0010001011011011001100111        470
0010001011011011001100111        470
0010001011011011001100111        470
0010001011011011001100111        470
0010001011011011001100111        470
0010001011011011001100111        470
0010001011011011001100111        470
0010001011011011001100111        470
0010001011011011001100111        470
0010001011011011001100111        470
0010001011011011001100111        470
0010001011011011001100111        470
0010001011011011001100111        470
0010001011011011001100111        470
0010001011011011001100111        470
0010001011011011001100111        470
0010001011011011001100111        470
0010001011011011001100111        470
0010001011011011001100111        470
0010001011011011001100111        470
0010001011011011001100111        470
0010001011011011001100111        470
0010001011011011001100111        470
0010001011011011001100111        470
0010001011011011001100111        470
0010001011011011001100111        470
0010001011011011001100111        470
0010001011011011001100111        470
0010001011011011001100111        470
0010001011011011001100111        470
0010001011011011001100111        470
0010001011011011001100111        470
0010001011011011001100111        470
0010001011011011001100111        470
0010001011011011001100111        470
0010001011011011001100111        470
0010001011011011001100111        470
0010001011011011001100111        470
0010001011011011001100111        470
0010001011011011001100111        470
0010001011011011001100111        470
0010001011011011001100111        470
0010001011011011001100111        470
0010001011011011001100111        470
0010001011011011001100111        470
0010001011011011001100111        470
0010001011011011001100111        470
0010001011011011001100111        470
0010001011011011001100111        470
0010001011011011001100111        470
0010001011011011001100111        470
1110011011011011001110011        481
1110011011011011001110011        481
1110011011011011001110011        481
1110011011011011001110011        481
1110011011011011001110011        481
1110011011011011001110011        481
1110011011011011001110011        481
1110011011011011001110011        481
1110011011011011001110011        481
1110011011011011001110011        481
1110011011011011001110011        481
1110011011011011001110011        481
1110011011011011001110011        481
1110011011011011001110011        481
1110011011011011001110011        481
1110011011011011001110011        481
1110011011011011001110011        481
1110011011011011001110011        481
1110011011011011001110011        481
1110011011011011001110011        481
1110011011011011001110011        481
1110011011011011001110011        481
1110011011011011001110011        481
1110011011011011001110011        481
1110011011011011001110011        481
1110011011011011001110011        481
1110011011011011001110011        481
1110011011011011001110011        481
1110011011011011001110011        481
1110011011011011001110011        481
1110011011011011001110011        481
1110011011011011001110011        481
1110011011011011001110011        481
1110011011011011001110011        481
1110011011011011001110011        481
1110011011011011001110011        481
1110011011011011001110011        481
1110011011011011001110011        481
1110011011011011001110011        481
1110011011011011001110011        481
1110011011011011001110011        481
1110011011011011001110011        481
1110011011011011001110011        481
1110011011011011001110011        481
1110011011011011001110011        481
1110011011011011001110011        481
1110011011011011001110011        481
1110011011011011001110011        481
1110011011011011001110011        481
1110011011011011001110011        481
1110011011011011001110011        481
1110011011011011001110011        481
1110011011011011001110011        481
1110011011011011001110011        481
1110011011011011001110011        481
1110011011011011001110011        481
1110011011011011001110011        481
1110011011011011001110011        481
1110011011011011001110011        481
1110011011011011001110011        481
1110011011011011001110011        481
1110011011011011001110011        481
1110011011011011001110011        481
1110011011011011001110011        481
1110011011011011001110011        481
1110011011011011001110011        481
1110011011011011001110011        481
1110011011011011001110011        481
1110011011011011001110011        481
1110011011011011001110011        481
1110011011011011001110011        481
1110011011011011001110011        481
1110011011011011001110011        481
1110011011011011001110011        481
1110011011011011001110011        481
1110011011011011001110011        481
1110011011011011001110011        481
1110011011011011001110011        481
1110011011011011001110011        481
1110011011011011001110011        481
1110011011011011001110011        481
1110011011011011001110011        481
1110011011011011001110011        481
1110011011011011001110011        481
1110011011011011001110011        481
1110011011011011001110011        481
1110011011011011001110011        481
1110011011011011001110011        481
1110011011011011001110011        481
1110011011011011001110011        481
1110011011011011001110011        481
1110011011011011001110011        481
1110011011011011001110011        481
1110011011011011001110011        481
1110011011011011001110011        481
1110011011011011001110011        481
1110011011011011001110011        481
1110011011011011001110011        481
1110011011011011001110011        481
1110011011011011001110011        481
1110011011011011001110011        481
1110011011011011001110011        481
1110011011011011001110011        481
1110011011011011001110011        481
1110011011011011001110011        481
1110011011011011001110011        481
1110011011011011001110011        481
1110011011011011001110011        481
1110011011011011001110011        481
1110011011011011001110011        481
1110011011011011001110011        481
1110011011011011001110011        481
1110011011011011001110011        481
1110011011011011001110011        481
1110011011011011001110011        481
1110011011011011001110011        481
1110011011011011001110011        481
1110011011011011001110011        481
1110011011011011001110011        481
1110011011011011001110011        481
1110011011011011001110011        481
1110011011011011001110011        481
1110011011011011001110011        481
1110011011011011001110011        481
1110011011011011001110011        481
1110011011011011001110011        481
1110011011011011001110011        481
1110011011011011001110011        481
1110011011011011001110011        481
1110011011011011001110011        481
1110011011011011001110011        481
1110011011011011001110011        481
1110011011011011001110011        481
1110011011011011001110011        481
1110011011011011001110011        481
1110011011011011001110011        481
1110011011011011001110011        481
1110011011011011001110011        481
1110011011011011001110011        481
1110011011011011001110011        481
1110011011011011001110011        481
1110011011011011001110011        481
1110011011011011001110011        481
1110011011011011001110011        481
1110011011011011001110011        481
1110011011011011001110011        481
1110011011011011001110011        481
1110011011011011001110011        481
1110011011011011001110011        481
1110011011011011001110011        481
1110011011011011001110011        481
1110011011011011001110011        481
1110011011011011001110011        481
1110011011011011001110011        481
1110011011011011001110011        481
1110011011011011001110011        481
1110011011011011001110011        481
1110011011011011001110011        481
1110011011011011001110011        481
1110011011011011001110011        481
1110011011011011001110011        481
1110011011011011001110011        481
1110011011011011001110011        481
1110011011011011001110011        481
1110011011011011001110011        481
1110011011011011001110011        481
1110011011011011001110011        481
1110011011011011001110011        481
1110011011011011001110011        481
1110011011011011001110011        481
1110011011011011001110011        481
1110011011011011001110011        481
1110011011011011001110011        481
1110011011011011001110011        481
1110011011011011001110011        481
1110011011011011001110011        481
1110011011011011001110011        481
1110011011011011001110011        481
1110011011011011001110011        481
1110011011011011001110011        481
1110011011011011001110011        481
1110011011011011001110011        481
1110011011011011001110011        481
1110011011011011001110011        481
1110011011011011001110011        481
1110011011011011001110011        481
1110011011011011001110011        481
1110011011011011001110011        481
1110011011011011001110011        481
1110011011011011001110011        481
1110011011011011001110011        481
1110011011011011001110011        481
1110011011011011001110011        481
1110011011011011001110011        481
1110011011011011001110011        481
1110011011011011001110011        481
1110011011011011001110011        481
1110011011011011001110011        481
1110011011011011001110011        481
1110011011011011001110011        481
1110011011011011001110011        481
1110011011011011001110011        481
1110011011011011001110011        481
1110011011011011001110011        481
1110011011011011001110011        481
1110011011011011001110011        481
1110011011011011001110011        481
1110011011011011001110011        481
1110011011011011001110011        481
1110011011011011001110011        481
1110011011011011001110011        481
1110011011011011001110011        481
1110011011011011001110011        481
1110011011011011001110011        481
1110011011011011001110011        481
1110011011011011001110011        481
1110011011011011001110011        481
1110011011011011001110011        481
1110011011011011001110011        481
1110011011011011001110011        481
1110011011011011001110011        481
1110011011011011001110011        481
1110011011011011001110011        481
1110011011011011001110011        481
1110011011011011001110011        481
1110011011011011001110011        481
1110011011011011001110011        481
1110011011011011001110011        481
1110011011011011001110011        481
1110011011011011001110011        481
1110011011011011001110011        481
1110011011011011001110011        481
1110011011011011001110011        481
1110011011011011001110011        481
1110011011011011001110011        481
1110011011011011001110011        481
1110011011011011001110011        481
1110011011011011001110011        481
1110011011011011001110011        481
1110011011011011001110011        481
1110011011011011001110011        481
1110011011011011001110011        481
1110011011011011001110011        481
1110011011011011001110011        481
1110011011011011001110011        481
1110011011011011001110011        481
1110011011011011001110011        481
1110011011011011001110011        481
1110011011011011001110011        481
1110011011011011001110011        481
1110011011011011001110011        481
1110011011011011001110011        481
1110011011011011001110011        481
1110011011011011001110011        481
1110011011011011001110011        481
1110011011011011001110011        481
1110011011011011001110011        481
1110011011011011001110011        481
1110011011011011001110011        481
1110011011011011001110011        481
1110011011011011001110011        481
1110011011011011001110011        481
1110011011011011001110011        481
1110011011011011001110011        481
1110011011011011001110011        481
1110011011011011001110011        481
1110011011011011001110011        481
1110011011011011001110011        481
1110011011011011001110011        481
1110011011011011001110011        481
1110011011011011001110011        481
1110011011011011001110011        481
1110011011011011001110011        481
1110011011011011001110011        481
1110011011011011001110011        481
1110011011011011001110011        481
1110011011011011001110011        481
1110011011011011001110011        481
1110011011011011001110011        481
1110011011011011001110011        481
1110011011011011001110011        481
1110011011011011001110011        481
1110011011011011001110011        481
1110011011011011001110011        481
1110011011011011001110011        481
1110011011011011001110011        481
1110011011011011001110011        481
1110011011011011001110011        481
1110011011011011001110011        481
1110011011011011001110011        481
1110011011011011001110011        481
1110011011011011001110011        481
1110011011011011001110011        481
1110011011011011001110011        481
1110011011011011001110011        481
1110011011011011001110011        481
1110011011011011001110011        481
1110011011011011001110011        481
1110011011011011001110011        481
1110011011011011001110011        481
1110011011011011001110011        481
1110011011011011001110011        481
1110011011011011001110011        481
1110011011011011001110011        481
1110011011011011001110011        481
1110011011011011001110011        481
1110011011011011001110011        481
1110011011011011001110011        481
1110011011011011001110011        481
1110011011011011001110011        481
1110011011011011001110011        481
1110011011011011001110011        481
1110011011011011001110011        481
1110011011011011001110011        481
1110011011011011001110011        481
1110011011011011001110011        481
1110011011011011001110011        481
1110011011011011001110011        481
1110011011011011001110011        481
1110011011011011001110011        481
1110011011011011001110011        481
1110011011011011001110011        481
1110011011011011001110011        481
1110011011011011001110011        481
1110011011011011001110011        481
1110011011011011001110011        481
1110011011011011001110011        481
1110011011011011001110011        481
1110011011011011001110011        481
1110011011011011001110011        481
1110011011011011001110011        481
1110011011011011001110011        481
1110011011011011001110011        481
1110011011011011001110011        481
1110011011011011001110011        481
1110011011011011001110011        481
1110011011011011001110011        481
1110011011011011001110011        481
1110011011011011001110011        481
1110011011011011001110011        481
1110011011011011001110011        481
1110011011011011001110011        481
1110011011011011001110011        481
1110011011011011001110011        481
1110011011011011001110011        481
1110011011011011001110011        481
1110011011011011001110011        481
1110011011011011001110011        481
1110011011011011001110011        481
1110011011011011001110011        481
1110011011011011001110011        481
1110011011011011001110011        481
1110011011011011001110011        481
1110011011011011001110011        481
1110011011011011001110011        481
1110011011011011001110011        481
1110011011011011001110011        481
1110011011011011001110011        481
1110011011011011001110011        481
1110011011011011001110011        481
1110011011011011001110011        481
1110011011011011001110011        481
1110011011011011001110011        481
1110011011011011001110011        481
1110011011011011001110011        481
1110011011011011001110011        481
1110011011011011001110011        481
1110011011011011001110011        481
1110011011011011001110011        481
1110011011011011001110011        481
1110011011011011001110011        481
1110011011011011001110011        481
1110011011011011001110011        481
1110011011011011001110011        481
1110011011011011001110011        481
1110011011011011001110011        481
1110011011011011001110011        481
1110011011011011001110011        481
1110011011011011001110011        481
1110011011011011001110011        481
1110011011011011001110011        481
1110011011011011001110011        481
1110011011011011001110011        481
1110011011011011001110011        481
1110011011011011001110011        481
1110011011011011001110011        481
1110011011011011001110011        481
1110011011011011001110011        481
1110011011011011001110011        481
1110011011011011001110011        481
1110011011011011001110011        481
1110011011011011001110011        481
1110011011011011001110011        481
1110011011011011001110011        481
1110011011011011001110011        481
1110011011011011001110011        481
1110011011011011001110011        481
1110011011011011001110011        481
1110011011011011001110011        481
1110011011011011001110011        481
1110011011011011001110011        481
1110011011011011001110011        481
1110011011011011001110011        481
1110011011011011001110011        481
1110011011011011001110011        481
1110011011011011001110011        481
1110011011011011001110011        481
1110011011011011001110011        481
1110011011011011001110011        481
1110011011011011001110011        481
1110011011011011001110011        481
1110011011011011001110011        481
1110011011011011001110011        481
1110011011011011001110011        481
1110011011011011001110011        481
1110011011011011001110011        481
1110011011011011001110011        481
1110011011011011001110011        481
1110011011011011001110011        481
1110011011011011001110011        481
1110011011011011001110011        481
1110011011011011001110011        481
1110011011011011001110011        481
1110011011011011001110011        481
1110011011011011001110011        481
1110011011011011001110011        481
1110011011011011001110011        481
1110011011011011001110011        481
1110011011011011001110011        481
1110011011011011001110011        481
1110011011011011001110011        481
1110011011011011001110011        481
1110011011011011001110011        481
1110011011011011001110011        481
1110011011011011001110011        481
1110011011011011001110011        481
1110011011011011001110011        481
1110011011011011001110011        481
1110011011011011001110011        481
1110011011011011001110011        481
1110011011011011001110011        481
1110011011011011001110011        481
1110011011011011001110011        481
1110011011011011001110011        481
1110011011011011001110011        481
1110011011011011001110011        481
1110011011011011001110011        481
1110011011011011001110011        481
1110011011011011001110011        481
1110011011011011001110011        481
1110011011011011001110011        481
1110011011011011001110011        481
1110011011011011001110011        481
1110011011011011001110011        481
1110011011011011001110011        481
1110011011011011001110011        481
1110011011011011001110011        481
1110011011011011001110011        481
1110011011011011001110011        481
1110011011011011001110011        481
1110011011011011001110011        481
1110011011011011001110011        481
1110011011011011001110011        481
1110011011011011001110011        481
1110011011011011001110011        481
1110011011011011001110011        481
1110011011011011001110011        481
1110011011011011001110011        481
1110011011011011001110011        481
1110011011011011001110011        481
1110011011011011001110011        481
1110011011011011001110011        481
1110011011011011001110011        481
1110011011011011001110011        481
1110011011011011001110011        481
1110011011011011001110011        481
1110011011011011001110011        481
1110011011011011001110011        481
1110011011011011001110011        481
1110011011011011001110011        481
1110011011011011001110011        481
1110011011011011001110011        481
1110011011011011001110011        481
1110011011011011001110011        481
1110011011011011001110011        481
1110011011011011001110011        481
1110011011011011001110011        481
1110011011011011001110011        481
1110011011011011001110011        481
1110011011011011001110011        481
1110011011011011001110011        481
1110011011011011001110011        481
1110011011011011001110011        481
1110011011011011001110011        481
1110011011011011001110011        481
1110011011011011001110011        481
1110011011011011001110011        481
1110011011011011001110011        481
1110011011011011001110011        481
1110011011011011001110011        481
1110011011011011001110011        481
1110011011011011001110011        481
1110011011011011001110011        481
1110011011011011001110011        481
1110011011011011001110011        481
1110011011011011001110011        481
1110011011011011001110011        481
1110011011011011001110011        481
1110011011011011001110011        481
1110011011011011001110011        481
1110011011011011001110011        481
1110011011011011001110011        481
1110011011011011001110011        481
1110011011011011001110011        481
1110011011011011001110011        481
1110011011011011001110011        481
1110011011011011001110011        481
1110011011011011001110011        481
1110011011011011001110011        481
1110011011011011001110011        481
1110011011011011001110011        481
1110011011011011001110011        481
1110011011011011001110011        481
1110011011011011001110011        481
1110011011011011001110011        481
1110011011011011001110011        481
1110011011011011001110011        481
1110011011011011001110011        481
1110011011011011001110011        481
1110011011011011001110011        481
1110011011011011001110011        481
1110011011011011001110011        481
1110011011011011001110011        481
1110011011011011001110011        481
1110011011011011001110011        481
1110011011011011001110011        481
1110011011011011001110011        481
1110011011011011001110011        481
1110011011011011001110011        481
1110011011011011001110011        481
1110011011011011001110011        481
1110011011011011001110011        481
1110011011011011001110011        481
1110011011011011001110011        481
1110011011011011001110011        481
1110011011011011001110011        481
1110011011011011001110011        481
1110011011011011001110011        481
1110011011011011001110011        481
1110011011011011001110011        481
1110011011011011001110011        481
1110011011011011001110011        481
1110011011011011001110011        481
1110011011011011001110011        481
1110011011011011001110011        481
1110011011011011001110011        481
1110011011011011001110011        481
1110011011011011001110011        481
1110011011011011001110011        481
1110011011011011001110011        481
1110011011011011001110011        481
1110011011011011001110011        481
1110011011011011001110011        481
1110011011011011001110011        481
1110011011011011001110011        481
1110011011011011001110011        481
1110011011011011001110011        481
